25231,14873,25500,18333,8968,982,7748,14926,16343,21138,20561,2787,20162,25169,22185,18698,21634,18252,25549,13955,9998,11197,25336,18112,17860,15190,11686,13711,17883,10535,7258,7241,7886,14213,2657,7784,15343,16225,255,1483,12725,3700,6961,5455,9185,11682,21663,15638,2225,16161,16163,21030,10176,16461,19333,5796,16478,2262,10052,2858,2573,4804,11559,26067,19210,7866,19879,25231